5728684904623886390503,2,1,2,015,4,1,2,012,12,1,2,015,13,1,2,01,7,1,2,03,13,1,2,07,15,1,2,03,9,1,2,07,4,1,2,013,12,1,2,015,15,1,2,010,9,1,2,013,15,1,2,06,7,1,2,06,13,1,2,04,7,1,2,015,9,1,2,09,8,1,2,011,14,1,2,02,2,1,2,03,11,1,2,014,14,1,2,015,8,1,2,011,11,1,2,01,5,1,2,010,7,1,2,03,6,1,2,07,14,1,2,07,9,1,2,08,4,1,2,09,10,1,2,09,2,1,2,07,1,1,2,03,7,1,2,01,12,1,2,011,6,1,2,04,1,1,2,012,7,1,2,08,11,1,2,08,8,1,2,06,12,1,2,03,15,1,2,015,9,1,2,015,8,1,2,011,3,1,2,07,10,1,2,03,14,1,2,04,6,1,2,04,1,1,2,06,3,1,2,0